c description: Perfect Matching Principle on 
c generator: CNFgen (0.9.0)
c copyright: (C) 2012-2020 Massimo Lauria <massimo.lauria@uniroma1.it>
c url: https://massimolauria.net/cnfgen
c
p cnf 40 162
-1 -2 0
-1 -3 0
-1 -4 0
-2 -3 0
-2 -4 0
-3 -4 0
1 2 3 4 0
-1 -5 0
1 5 0
-6 -7 0
-6 -8 0
-6 -9 0
-6 -10 0
-6 -11 0
-7 -8 0
-7 -9 0
-7 -10 0
-7 -11 0
-8 -9 0
-8 -10 0
-8 -11 0
-9 -10 0
-9 -11 0
-10 -11 0
6 7 8 9 10 11 0
-12 -13 0
-12 -14 0
-12 -15 0
-12 -16 0
-13 -14 0
-13 -15 0
-13 -16 0
-14 -15 0
-14 -16 0
-15 -16 0
12 13 14 15 16 0
-2 -6 0
-2 -17 0
-2 -18 0
-6 -17 0
-6 -18 0
-17 -18 0
2 6 17 18 0
-12 -17 0
-12 -19 0
-12 -20 0
-12 -21 0
-17 -19 0
-17 -20 0
-17 -21 0
-19 -20 0
-19 -21 0
-20 -21 0
12 17 19 20 21 0
-22 -23 0
22 23 0
-13 -24 0
-13 -25 0
-13 -26 0
-24 -25 0
-24 -26 0
-25 -26 0
13 24 25 26 0
-27 -28 0
-27 -29 0
-27 -30 0
-28 -29 0
-28 -30 0
-29 -30 0
27 28 29 30 0
-3 -7 0
-3 -22 0
-3 -31 0
-7 -22 0
-7 -31 0
-22 -31 0
3 7 22 31 0
-14 -24 0
-14 -31 0
-14 -32 0
-14 -33 0
-24 -31 0
-24 -32 0
-24 -33 0
-31 -32 0
-31 -33 0
-32 -33 0
14 24 31 32 33 0
-5 -15 0
-5 -19 0
-5 -27 0
-5 -34 0
-5 -35 0
-15 -19 0
-15 -27 0
-15 -34 0
-15 -35 0
-19 -27 0
-19 -34 0
-19 -35 0
-27 -34 0
-27 -35 0
-34 -35 0
5 15 19 27 34 35 0
-25 -28 0
-25 -32 0
-25 -36 0
-28 -32 0
-28 -36 0
-32 -36 0
25 28 32 36 0
-4 -8 0
-4 -18 0
-4 -33 0
-4 -37 0
-8 -18 0
-8 -33 0
-8 -37 0
-18 -33 0
-18 -37 0
-33 -37 0
4 8 18 33 37 0
-26 -34 0
-26 -38 0
-34 -38 0
26 34 38 0
-9 -20 0
-9 -23 0
-20 -23 0
9 20 23 0
-10 -16 0
-10 -39 0
-16 -39 0
10 16 39 0
-11 -29 0
-11 -35 0
-11 -36 0
-11 -38 0
-11 -40 0
-29 -35 0
-29 -36 0
-29 -38 0
-29 -40 0
-35 -36 0
-35 -38 0
-35 -40 0
-36 -38 0
-36 -40 0
-38 -40 0
11 29 35 36 38 40 0
-21 -30 0
-21 -37 0
-21 -39 0
-21 -40 0
-30 -37 0
-30 -39 0
-30 -40 0
-37 -39 0
-37 -40 0
-39 -40 0
21 30 37 39 40 0
0